3625.16
0 15 22 71 36 0 
0 66 87 82 4 3 8 63 0 
0 52 68 44 30 42 43 56 38 14 0 
0 21 12 11 17 89 100 9 85 83 73 74 0 
0 97 93 96 95 98 39 0 
0 25 51 59 45 35 29 47 0 
0 16 13 7 6 5 1 2 94 23 18 24 0 
0 27 19 61 57 53 58 67 28 34 31 79 77 69 72 70 0 
0 26 99 81 50 60 49 37 48 0 
0 20 92 90 91 88 10 86 84 0 
0 64 65 55 80 76 78 62 54 46 32 41 40 33 75 0 
